Route #1: 39 5 18 30 11 51 12 47 28 38 33 3 50 7 2 43 61
Route #2: 14 53 59 64 49 23 56 55 6 16 22 10 26
Route #3: 40 41 54 45 62 63 58 4 31
Route #4: 17 44 42 27 67 19 52 48 25 35 36 21 8 37 65 15 60 66 20
Route #5: 1 32 34 24 9
Route #6: 46 13 29 57
Route #7: 
Route #8: 
Route #9: 
Route #10: 
cost 1465.8886439797236
